TOUR_SECTION
1
90
105
9
188
183
53
35
117
138
25
194
84
14
106
58
169
23
31
96
181
162
24
129
48
2
201
122
86
115
32
19
179
7
126
45
83
170
139
159
121
40
49
42
82
184
11
94
130
175
52
60
79
152
68
134
156
198
160
120
47
30
70
151
91
3
125
39
99
196
150
140
101
17
100
195
85
132
143
192
61
22
51
113
8
74
26
62
67
57
104
5
147
114
157
108
118
59
176
186
124
148
43
136
168
142
66
15
127
165
65
46
111
75
177
123
64
13
92
189
164
77
185
128
200
72
171
34
119
191
93
89
158
110
55
161
163
116
38
20
28
73
33
76
187
109
172
10
41
180
16
149
178
4
80
44
21
103
131
155
145
27
137
107
12
174
56
37
154
135
141
133
112
29
69
50
197
193
6
190
102
167
199
95
88
81
173
78
146
98
18
97
144
87
36
182
63
71
153
54
166
-1
EOF